% Auto-generated by scripts/generate_dzn.py
% problem_type   = regex
% instance       = regex_47
% source_json    = instances_json/1_medium_blowup/regex_47.json
% blowup         = 3.2857142857142856
% representation = NFA

mode = 1;

var_count = 11;
n_constraints = 2;
Q = 10;
S = 3;
q0 = [1, 1];
F = [{10}, {4}];
weights = [10, 5, 4, 4, 3, 10, 4, 1, 3, 6, 4];
d_dfa = array3d(1..2, 1..10, 1..3, [
  % k = 1
    0, 0, 0,
    0, 0, 0,
    0, 0, 0,
    0, 0, 0,
    0, 0, 0,
    0, 0, 0,
    0, 0, 0,
    0, 0, 0,
    0, 0, 0,
    0, 0, 0,

  % k = 2
    0, 0, 0,
    0, 0, 0,
    0, 0, 0,
    0, 0, 0,
    0, 0, 0,
    0, 0, 0,
    0, 0, 0,
    0, 0, 0,
    0, 0, 0,
    0, 0, 0
]);
d_nfa = array3d(1..2, 1..10, 1..3, [
  % k = 1
    {1, 2}, {1}, {1},
    {3}, {}, {},
    {}, {}, {4},
    {5}, {5}, {5},
    {6}, {6}, {6},
    {7}, {7}, {7},
    {8}, {8}, {8},
    {9}, {9}, {9},
    {10}, {10}, {10},
    {}, {}, {},

  % k = 2
    {2}, {1}, {1},
    {3}, {2}, {2},
    {4}, {3}, {3},
    {}, {4}, {4},
    {}, {}, {},
    {}, {}, {},
    {}, {}, {},
    {}, {}, {},
    {}, {}, {},
    {}, {}, {}
]);
